p edge 800 3986
1 210
1 513
1 101
1 2
1 446
2 564
2 385
2 440
2 56
2 3
3 342
3 531
3 4
3 678
3 28
4 5
4 731
4 72
4 435
4 720
5 393
5 359
5 6
5 134
5 517
6 7
6 381
6 419
6 434
6 586
7 8
7 375
7 569
7 223
7 49
8 284
8 749
8 788
8 9
8 559
9 465
9 372
9 10
9 578
9 648
10 11
10 372
10 31
10 99
10 81
11 596
11 12
11 115
11 566
11 733
12 374
12 325
12 457
12 193
12 13
13 724
13 741
13 14
13 692
13 642
14 193
14 602
14 780
14 423
14 15
15 16
15 743
15 202
15 707
15 479
16 478
16 592
16 17
16 432
16 244
17 120
17 219
17 343
17 18
18 19
18 245
18 373
18 590
18 799
19 547
19 20
19 745
19 70
19 320
20 131
20 780
20 21
20 204
20 582
21 102
21 297
21 22
21 386
21 581
22 769
22 117
22 311
22 23
22 432
23 24
23 122
23 26
23 485
23 715
24 23
24 25
24 365
24 209
24 641
25 102
25 242
25 322
25 26
25 324
26 614
26 27
26 119
26 6
26 12
27 265
27 499
27 375
27 246
27 28
28 85
28 29
28 35
28 300
28 619
29 30
29 167
29 469
29 424
29 260
30 31
30 92
30 5
30 476
30 723
31 271
31 216
31 32
31 794
31 479
32 557
32 33
32 543
32 642
32 492
33 784
33 178
33 34
33 208
33 691
34 536
34 677
34 50
34 286
34 35
35 575
35 17
35 32
35 36
35 624
36 272
36 489
36 300
36 37
36 52
37 310
37 38
37 206
37 252
37 414
38 151
38 39
38 363
38 519
38 89
39 153
39 319
39 40
39 226
39 790
40 553
40 726
40 41
40 319
40 545
41 310
41 363
41 42
41 441
41 632
42 43
42 123
42 558
42 295
42 205
43 93
43 437
43 44
43 655
43 381
44 538
44 346
44 484
44 45
44 778
45 452
45 562
45 20
45 46
45 523
46 47
46 114
46 497
46 352
46 351
47 779
47 72
47 673
47 173
47 48
48 77
48 670
48 185
48 386
48 49
49 50
49 427
49 700
49 797
49 657
50 379
50 160
50 51
50 722
50 610
51 241
51 412
51 397
51 682
51 52
52 662
52 335
52 262
52 53
52 224
53 456
53 736
53 321
53 44
53 54
54 146
54 142
54 736
54 55
54 610
55 85
55 565
55 56
55 208
55 608
56 737
56 228
56 558
56 57
56 765
57 369
57 58
57 461
57 89
57 480
58 111
58 109
58 59
58 338
58 346
59 741
59 100
59 604
59 578
59 60
60 376
60 61
60 336
60 535
60 135
61 215
61 394
61 659
61 456
61 62
62 686
62 106
62 63
62 661
62 707
63 190
63 765
63 76
63 64
63 57
64 149
64 220
64 699
64 692
64 65
65 697
65 66
65 619
65 656
65 387
66 274
66 127
66 347
66 67
66 300
67 499
67 654
67 68
67 365
67 182
68 526
68 69
68 336
68 252
68 563
69 70
69 18
69 461
69 409
69 468
70 480
70 391
70 442
70 382
70 71
71 105
71 72
71 656
71 430
71 137
72 205
72 688
72 581
72 73
72 34
73 497
73 621
73 353
73 74
73 527
74 75
74 225
74 529
74 154
74 304
75 364
75 76
75 418
75 90
75 220
76 187
76 77
76 478
76 797
76 254
77 213
77 535
77 78
77 14
78 82
78 79
78 248
78 125
79 425
79 719
79 552
79 80
79 547
80 483
80 81
80 37
80 247
80 521
81 623
81 199
81 82
81 411
81 54
82 583
82 747
82 698
82 636
82 83
83 84
83 575
83 725
83 689
83 171
84 437
84 351
84 146
84 85
84 736
85 356
85 217
85 197
85 435
85 86
86 87
86 172
86 163
86 284
86 261
87 305
87 214
87 298
87 88
87 585
88 587
88 89
88 215
88 512
88 531
89 496
89 90
89 22
89 744
89 741
90 283
90 679
90 91
90 414
90 708
91 88
91 92
91 317
91 528
91 54
92 219
92 704
92 93
92 525
92 531
93 635
93 453
93 94
93 219
93 518
94 723
94 345
94 95
94 90
94 760
95 407
95 96
95 442
95 501
95 448
96 796
96 78
96 659
96 627
96 97
97 604
97 98
97 707
97 778
97 680
98 439
98 533
98 178
98 99
98 613
99 644
99 593
99 738
99 727
99 100
100 218
100 500
100 301
100 355
100 101
101 755
101 102
101 173
101 46
101 365
102 341
102 103
102 735
102 788
102 266
103 703
103 104
103 539
103 611
103 411
104 105
104 75
104 525
104 521
104 390
105 248
105 106
105 748
105 386
105 661
106 107
106 65
106 769
106 413
106 500
107 108
107 518
107 747
107 553
107 12
108 12
108 554
108 109
108 44
108 253
109 275
109 588
109 92
109 110
109 63
110 186
110 38
110 111
110 156
110 322
111 112
111 480
111 129
111 447
111 594
112 675
112 113
112 134
112 296
112 180
113 563
113 672
113 147
113 10
113 114
114 573
114 115
114 658
114 730
114 619
115 478
115 498
115 116
115 221
115 27
116 745
116 76
116 327
116 117
116 397
117 800
117 262
117 534
117 7
117 118
118 331
118 518
118 42
118 186
118 119
119 778
119 501
119 120
119 638
119 594
120 121
120 407
120 477
120 493
120 601
121 138
121 122
121 520
121 419
121 104
122 737
122 123
122 285
122 573
122 523
123 95
123 112
123 459
123 124
123 356
124 577
124 149
124 646
124 125
124 386
125 773
125 394
125 126
125 10
125 529
126 127
126 528
126 104
126 415
126 715
127 509
127 128
127 413
127 190
127 4
128 765
128 291
128 102
128 121
128 129
129 130
129 391
129 24
129 743
129 94
130 698
130 486
130 484
130 54
130 131
131 379
131 188
131 776
131 132
131 248
132 658
132 534
132 392
132 483
132 133
133 308
133 725
133 134
133 221
133 502
134 135
134 197
134 19
134 490
134 520
135 33
135 367
135 322
135 29
135 136
136 639
136 570
136 137
136 501
136 546
137 654
137 684
137 397
137 138
137 305
138 287
138 432
138 367
138 105
138 139
139 661
139 305
139 140
139 640
139 581
140 364
140 141
140 28
140 545
140 497
141 153
141 142
141 616
141 179
141 757
142 707
142 544
142 718
142 561
142 143
143 176
143 144
143 76
143 70
143 355
144 145
144 107
144 449
144 528
144 47
145 146
145 33
145 576
145 416
145 7
146 726
146 147
146 632
146 134
146 545
147 225
147 148
147 315
147 16
147 377
148 175
148 259
148 105
148 13
148 149
149 191
149 280
149 150
149 459
149 209
150 140
150 151
150 187
150 678
150 338
151 426
151 211
151 152
151 187
151 597
152 733
152 153
152 94
152 550
152 261
153 154
153 458
153 425
153 410
153 303
154 63
154 155
154 503
154 97
154 303
155 156
155 60
155 215
155 682
155 683
156 157
156 234
156 61
156 467
156 22
157 672
157 158
157 356
157 431
157 313
158 159
158 473
158 787
158 486
158 429
159 526
159 96
159 160
159 50
159 338
160 763
160 516
160 441
160 647
160 161
161 512
161 57
161 48
161 450
161 162
162 246
162 506
162 774
162 163
162 688
163 86
163 164
163 395
163 331
163 689
164 647
164 165
164 683
164 97
164 390
165 503
165 513
165 148
165 166
165 103
166 359
166 648
166 365
166 505
166 167
167 665
167 507
167 703
167 168
168 191
168 702
168 169
168 511
168 641
169 519
169 170
169 187
169 191
169 372
170 281
170 171
170 68
170 678
170 117
171 720
171 539
171 261
171 304
171 172
172 399
172 701
172 253
172 173
172 89
173 174
173 722
173 51
173 158
173 700
174 566
174 501
174 603
174 175
174 658
175 153
175 176
175 108
175 120
175 86
176 539
176 177
176 182
176 28
176 159
177 45
177 178
177 436
177 131
177 585
178 793
178 179
178 282
178 612
178 337
179 417
179 180
179 800
179 163
179 87
180 181
180 52
180 83
180 283
180 355
181 555
181 182
181 709
181 144
181 76
182 479
182 183
182 221
182 27
182 628
183 668
183 264
183 184
183 590
183 115
184 185
184 498
184 222
184 528
184 337
185 186
185 723
185 209
185 461
185 631
186 704
186 311
186 390
186 297
186 187
187 152
187 188
187 592
187 33
187 764
188 189
188 562
188 392
188 492
188 68
189 190
189 751
189 243
189 660
189 22
190 191
190 630
190 474
190 128
190 125
191 406
191 611
191 521
191 192
191 350
192 314
192 193
192 541
192 548
192 105
193 1
193 194
193 751
193 731
193 661
194 653
194 202
194 246
194 195
194 372
195 196
195 483
195 758
195 795
195 363
196 197
196 376
196 55
196 677
196 267
197 662
197 198
197 378
197 587
197 385
198 428
198 691
198 443
198 128
198 199
199 679
199 716
199 200
199 206
199 217
200 302
200 85
200 158
200 201
200 237
201 134
201 202
201 364
201 531
201 424
202 441
202 228
202 711
202 231
202 203
203 82
203 118
203 731
203 447
203 204
204 727
204 28
204 594
204 677
204 205
205 193
205 206
205 544
205 229
205 218
206 621
206 697
206 207
206 564
206 196
207 473
207 3
207 233
207 208
207 485
208 650
208 220
208 399
208 209
208 649
209 591
209 601
209 628
209 210
209 682
210 211
210 392
210 784
210 353
210 19
211 649
211 702
211 749
211 212
211 675
212 213
212 295
212 441
212 38
212 312
213 552
213 214
213 584
213 791
213 267
214 529
214 578
214 603
214 442
214 215
215 212
215 629
215 216
215 455
215 208
216 499
216 571
216 660
216 701
216 217
217 529
217 88
217 401
217 714
217 218
218 219
218 584
218 124
218 40
218 304
219 220
219 43
219 258
219 663
219 320
220 512
220 98
220 29
220 323
220 221
221 641
221 289
221 222
221 686
221 118
222 508
222 733
222 272
222 223
222 370
223 572
223 224
223 18
223 417
223 678
224 225
224 288
224 81
224 62
224 75
225 226
225 4
225 327
225 25
225 532
226 593
226 393
226 673
226 36
226 227
227 187
227 71
227 369
227 239
227 228
228 364
228 554
228 70
228 191
228 229
229 312
229 27
229 87
229 230
229 409
230 102
230 792
230 147
230 489
230 231
231 506
231 781
231 295
231 232
231 340
232 421
232 233
232 475
232 559
232 676
233 239
233 481
233 234
233 609
233 346
234 714
234 235
234 655
234 386
234 651
235 10
235 788
235 570
235 375
235 236
236 699
236 237
236 626
236 352
236 608
237 308
237 461
237 47
237 105
237 238
238 63
238 702
238 292
238 347
238 239
239 354
239 298
239 240
239 76
239 297
240 648
240 214
240 258
240 241
240 660
241 275
241 663
241 675
241 242
241 688
242 243
242 426
242 133
242 767
242 444
243 725
243 780
243 524
243 771
243 244
244 203
244 245
244 229
244 1
244 353
245 759
245 246
245 231
245 229
245 597
246 558
246 539
246 247
246 787
246 604
247 301
247 557
247 24
247 365
247 248
248 539
248 22
248 495
248 279
248 249
249 124
249 250
249 591
249 293
249 477
250 158
250 36
250 251
250 381
250 216
251 188
251 24
251 252
251 729
251 54
252 583
252 111
252 618
252 253
252 680
253 254
253 776
253 179
253 529
253 55
254 611
254 740
254 232
254 255
254 619
255 256
255 240
255 589
255 473
255 792
256 746
256 104
256 280
256 281
256 257
257 535
257 379
257 788
257 258
257 180
258 637
258 528
258 259
258 303
258 299
259 758
259 693
259 260
259 31
259 377
260 449
260 789
260 668
260 731
260 261
261 227
261 115
261 262
261 303
261 549
262 717
262 382
262 372
262 241
262 263
263 526
263 334
263 115
263 264
263 407
264 153
264 506
264 265
264 531
264 736
265 126
265 104
265 266
265 256
265 286
266 406
266 515
266 317
266 194
266 267
267 33
267 303
267 282
267 268
267 421
268 447
268 199
268 630
268 269
268 180
269 730
269 466
269 761
269 615
269 270
270 165
270 271
270 63
270 447
270 114
271 272
271 692
271 453
271 38
271 659
272 768
272 365
272 20
272 431
272 273
273 274
273 538
273 664
273 494
273 463
274 240
274 275
274 282
274 780
274 254
275 499
275 276
275 762
275 719
275 298
276 214
276 691
276 162
276 480
276 277
277 554
277 653
277 7
277 278
277 532
278 775
278 225
278 279
278 789
278 26
279 185
279 18
279 197
279 387
279 280
280 281
280 677
280 160
280 70
280 63
281 501
281 282
281 135
281 576
281 504
282 283
282 257
282 543
282 422
282 408
283 284
283 544
283 305
283 400
283 375
284 448
284 231
284 21
284 285
284 713
285 357
285 169
285 286
285 374
285 666
286 482
286 287
286 524
286 254
286 185
287 484
287 123
287 288
287 679
287 476
288 289
288 721
288 488
288 454
288 328
289 246
289 709
289 290
289 172
289 739
290 686
290 291
290 130
290 302
290 530
291 566
291 292
291 541
291 711
291 368
292 277
292 293
292 85
292 607
292 309
293 26
293 697
293 359
293 322
293 294
294 679
294 216
294 295
294 208
294 88
295 139
295 590
295 410
295 296
295 89
296 174
296 297
296 410
296 290
296 26
297 649
297 253
297 298
297 120
297 316
298 471
298 299
298 592
298 144
298 309
299 300
299 553
299 368
299 531
299 472
300 245
300 657
300 301
300 53
300 73
301 545
301 350
301 302
301 560
301 584
302 753
302 577
302 249
302 142
302 303
303 304
303 414
303 71
303 518
303 62
304 744
304 451
304 581
304 761
304 305
305 167
305 601
305 306
305 323
305 35
306 209
306 307
306 658
306 798
306 649
307 520
307 31
307 541
307 308
307 49
308 70
308 265
308 67
308 472
308 309
309 692
309 357
309 238
309 615
309 310
310 148
310 311
310 361
310 149
310 799
311 714
311 180
311 312
311 272
311 255
312 313
312 731
312 648
312 155
312 303
313 22
313 80
313 243
313 648
313 314
314 487
314 315
314 31
314 440
314 324
315 594
315 316
315 19
315 55
315 201
316 196
316 587
316 353
316 245
316 317
317 72
317 285
317 124
317 318
317 266
318 530
318 544
318 204
318 319
318 370
319 320
319 83
319 540
319 745
319 425
320 682
320 743
320 481
320 321
320 136
321 95
321 357
321 16
321 699
321 322
322 308
322 96
322 152
322 323
322 458
323 278
323 324
323 393
323 576
323 193
324 104
324 529
324 553
324 325
324 780
325 326
325 791
325 8
325 546
325 146
326 82
326 694
326 765
326 327
326 372
327 45
327 534
327 425
327 328
327 142
328 564
328 405
328 329
328 663
328 189
329 535
329 289
329 590
329 330
329 20
330 581
330 487
330 331
330 280
330 266
331 357
331 403
331 486
331 332
331 441
332 160
332 333
332 437
332 579
332 369
333 149
333 431
333 334
333 394
333 470
334 406
334 254
334 430
334 335
334 231
335 117
335 587
335 104
335 336
335 531
336 337
336 468
336 645
336 134
336 666
337 192
337 301
337 171
337 338
337 367
338 131
338 308
338 448
338 339
338 772
339 493
339 502
339 340
339 541
339 89
340 341
340 799
340 485
340 283
340 295
341 342
341 128
341 87
341 82
341 629
342 560
342 494
342 637
342 343
342 170
343 210
343 344
343 29
343 220
343 141
344 345
344 581
344 277
344 102
345 729
345 346
345 264
345 527
345 200
346 524
346 774
346 347
346 247
346 30
347 240
347 729
347 348
347 334
347 123
348 349
348 309
348 194
348 604
348 300
349 371
349 22
349 356
349 111
349 350
350 351
350 523
350 546
350 291
350 338
351 41
351 633
351 725
351 129
351 352
352 18
352 49
352 250
352 378
352 353
353 591
353 303
353 354
353 133
353 540
354 198
354 471
354 355
354 717
354 253
355 497
355 674
355 356
355 395
355 163
356 70
356 394
356 429
356 749
356 357
357 176
357 745
357 263
357 713
357 358
358 359
358 251
358 775
358 585
358 752
359 194
359 360
359 153
359 10
359 578
360 510
360 361
360 636
360 453
360 629
361 362
361 429
361 639
361 665
361 489
362 363
362 661
362 170
362 197
362 309
363 72
363 400
363 226
363 197
363 364
364 202
364 728
364 365
364 724
364 727
365 425
365 492
365 333
365 366
365 362
366 516
366 367
366 174
366 149
366 778
367 12
367 151
367 759
367 368
368 735
368 508
368 435
368 651
368 369
369 159
369 276
369 370
369 552
369 405
370 81
370 371
370 165
370 33
371 65
371 440
371 509
371 504
371 372
372 29
372 251
372 578
372 232
372 373
373 174
373 296
373 13
373 374
373 342
374 48
374 492
374 551
374 375
374 279
375 170
375 267
375 467
375 376
375 191
376 278
376 377
376 459
376 144
376 597
377 278
377 210
377 378
377 354
377 139
378 148
378 421
378 733
378 379
378 498
379 481
379 26
379 90
379 181
379 380
380 49
380 763
380 110
380 302
380 381
381 382
381 67
381 130
381 783
381 404
382 70
382 28
382 551
382 383
382 702
383 773
383 730
383 384
383 346
383 708
384 38
384 76
384 385
384 602
384 70
385 312
385 386
385 691
385 19
385 32
386 387
386 790
386 142
386 409
386 587
387 82
387 735
387 675
387 388
387 280
388 140
388 490
388 343
388 604
388 389
389 390
389 149
389 254
389 138
389 783
390 311
390 796
390 594
390 105
390 391
391 536
391 507
391 392
391 506
391 701
392 250
392 542
392 393
392 775
392 388
393 561
393 580
393 782
393 261
393 394
394 185
394 395
394 538
394 21
394 157
395 235
395 516
395 396
395 145
395 782
396 520
396 93
396 397
396 625
396 638
397 227
397 184
397 378
397 343
397 398
398 300
398 70
398 232
398 399
398 154
399 400
399 48
399 632
399 264
399 121
400 261
400 345
400 401
400 706
400 670
401 402
401 350
401 140
401 196
401 705
402 665
402 630
402 757
402 172
402 403
403 715
403 281
403 658
403 404
403 171
404 344
404 786
404 789
404 706
404 405
405 80
405 406
405 505
405 101
405 145
406 407
406 734
406 116
406 137
406 349
407 495
407 408
407 108
407 373
407 725
408 138
408 107
408 409
408 492
408 207
409 410
409 358
409 531
409 273
409 119
410 520
410 388
410 411
410 359
410 567
411 275
411 107
411 285
411 412
411 696
412 269
412 538
412 200
412 759
412 413
413 679
413 414
413 456
413 258
413 624
414 271
414 415
414 401
414 789
414 366
415 210
415 416
415 42
415 106
415 476
416 417
416 777
416 730
416 559
416 641
417 617
417 585
417 156
417 757
417 418
418 605
418 242
418 419
418 402
418 484
419 420
419 696
419 151
419 324
419 721
420 284
420 475
420 619
420 686
420 421
421 287
421 759
421 260
421 382
421 422
422 100
422 179
422 799
422 423
422 629
423 360
423 634
423 1
423 424
423 316
424 190
424 126
424 27
424 120
424 425
425 230
425 586
425 710
425 641
425 426
426 380
426 793
426 429
426 268
426 427
427 721
427 302
427 428
427 140
427 265
428 429
428 236
428 710
428 687
428 730
429 430
429 300
429 584
429 297
429 106
430 667
430 34
430 431
430 120
430 570
431 432
431 435
431 210
431 118
431 372
432 299
432 475
432 186
432 30
432 433
433 1
433 19
433 434
433 532
433 238
434 466
434 435
434 651
434 258
434 243
435 715
435 436
435 52
435 200
435 314
436 288
436 437
436 638
436 657
436 302
437 439
437 183
437 259
437 438
437 372
438 717
438 439
438 670
438 178
438 199
439 135
439 440
439 645
439 123
439 76
440 714
440 776
440 427
440 636
440 441
441 49
441 442
441 480
441 209
441 536
442 29
442 49
442 447
442 281
442 443
443 99
443 585
443 444
443 573
443 251
444 487
444 622
444 445
444 575
444 609
445 724
445 98
445 446
445 208
445 452
446 447
446 702
446 290
446 423
446 771
447 128
447 455
447 198
447 448
447 338
448 651
448 371
448 298
448 238
448 449
449 450
449 630
449 79
449 710
449 237
450 711
450 103
450 221
450 366
450 451
451 187
451 410
451 87
451 452
451 648
452 649
452 453
452 373
452 34
452 550
453 304
453 248
453 328
453 376
453 454
454 684
454 292
454 653
454 388
454 455
455 577
455 736
455 112
455 498
455 456
456 572
456 557
456 316
456 694
456 457
457 144
457 458
457 396
457 348
457 395
458 337
458 379
458 459
458 76
458 546
459 594
459 244
459 460
459 657
459 141
460 768
460 774
460 24
460 557
460 461
461 328
461 197
461 746
461 120
461 462
462 453
462 463
462 233
462 749
462 396
463 464
463 201
463 313
463 521
463 752
464 165
464 196
464 608
464 465
464 454
465 466
465 73
465 147
465 99
465 96
466 467
466 622
466 793
466 648
466 371
467 9
467 167
467 70
467 468
467 763
468 469
468 182
468 547
468 644
468 788
469 28
469 611
469 689
469 470
469 363
470 774
470 471
470 486
470 155
470 53
471 472
471 799
471 485
471 262
471 389
472 521
472 473
472 649
472 16
472 333
473 556
473 131
473 286
473 474
473 358
474 679
474 775
474 653
474 475
474 480
475 744
475 339
475 257
475 476
475 530
476 585
476 473
476 715
476 735
476 477
477 393
477 400
477 451
477 252
477 478
478 479
478 582
478 549
478 405
478 691
479 73
479 586
479 744
479 93
479 480
480 481
480 498
480 503
480 92
480 428
481 689
481 593
481 482
481 471
481 91
482 475
482 358
482 735
482 483
482 354
483 484
483 406
483 35
483 281
483 316
484 297
484 84
484 9
484 488
484 485
485 381
485 486
485 11
485 218
486 487
486 566
486 416
486 491
487 285
487 318
487 277
487 444
487 488
488 563
488 775
488 64
488 489
488 511
489 490
489 247
489 258
489 522
489 226
490 774
490 764
490 425
490 164
490 491
491 384
491 503
491 130
491 492
491 671
492 379
492 141
492 241
492 493
492 749
493 748
493 629
493 317
493 547
493 494
494 228
494 433
494 46
494 495
494 196
495 93
495 496
495 111
495 732
495 122
496 497
496 257
496 217
496 238
496 386
497 362
497 243
497 127
497 498
497 399
498 488
498 443
498 167
498 644
498 499
499 504
499 674
499 419
499 500
499 522
500 80
500 756
500 10
500 41
500 501
501 502
501 65
501 469
501 400
501 309
502 406
502 423
502 503
502 308
502 452
503 575
503 435
503 504
503 636
503 39
504 43
504 505
504 620
504 576
504 456
505 482
505 513
505 396
505 421
505 506
506 750
506 536
506 507
506 643
506 218
507 776
507 508
507 56
507 149
507 552
508 715
508 89
508 314
508 509
508 441
509 625
509 739
509 510
509 188
509 72
510 706
510 511
510 164
510 228
510 220
511 743
511 297
511 152
511 512
511 405
512 194
512 513
512 592
512 691
512 126
513 733
513 328
513 43
513 514
513 468
514 132
514 515
514 790
514 122
514 694
515 100
515 250
515 679
515 516
515 492
516 517
516 703
516 131
516 428
516 715
517 784
517 179
517 97
517 518
517 411
518 519
518 627
518 653
518 277
518 485
519 575
519 429
519 635
519 520
520 521
520 379
520 133
520 344
520 262
521 701
521 523
521 522
521 476
521 733
522 523
522 362
522 42
522 140
522 691
523 126
523 477
523 524
523 169
523 232
524 401
524 525
524 189
524 35
524 560
525 526
525 302
525 184
525 318
525 159
526 269
526 172
526 527
526 410
526 700
527 528
527 198
527 257
527 181
527 684
528 529
528 397
528 287
528 513
528 628
529 288
529 343
529 654
529 530
529 48
530 503
530 632
530 531
530 507
531 730
531 400
531 800
531 120
531 532
532 654
532 374
532 533
532 64
532 408
533 534
533 616
533 49
533 639
533 261
534 170
534 83
534 225
534 307
534 535
535 233
535 542
535 313
535 536
535 103
536 210
536 301
536 537
536 469
536 514
537 688
537 538
537 57
537 443
537 758
538 185
538 760
538 539
538 476
538 664
539 360
539 347
539 255
539 677
539 540
540 541
540 398
540 489
540 667
540 370
541 417
541 639
541 542
541 590
541 525
542 388
542 121
542 543
542 215
542 45
543 417
543 768
543 536
543 331
543 544
544 545
544 482
544 203
544 104
544 654
545 786
545 771
545 546
545 191
545 795
546 547
546 556
546 303
546 292
546 411
547 548
547 457
547 106
547 68
547 321
548 549
548 697
548 62
548 71
548 14
549 455
549 138
549 550
549 528
549 226
550 167
550 754
550 583
550 551
550 509
551 41
551 552
551 480
551 209
551 195
552 36
552 650
552 731
552 553
552 715
553 629
553 265
553 554
553 105
553 346
554 72
554 32
554 240
554 555
554 569
555 789
555 372
555 36
555 556
555 701
556 602
556 557
556 315
556 437
556 416
557 596
557 391
557 358
557 62
557 558
558 559
558 225
558 524
558 626
558 428
559 628
559 83
559 560
559 229
559 55
560 561
560 2
560 473
560 400
560 337
561 796
561 233
561 520
561 562
561 124
562 405
562 563
562 586
562 80
562 314
563 584
563 157
563 564
563 464
563 379
564 565
564 596
564 617
564 756
564 527
565 54
565 122
565 566
565 287
565 408
566 166
566 494
566 567
566 415
566 128
567 604
567 297
567 263
567 568
567 772
568 30
568 187
568 223
568 569
568 751
569 512
569 687
569 74
569 570
569 715
570 62
570 767
570 622
570 571
570 193
571 651
571 41
571 797
571 418
571 572
572 502
572 364
572 573
572 424
572 72
573 336
573 136
573 574
573 374
573 17
574 482
574 575
574 564
574 337
574 394
575 141
575 576
575 404
575 208
575 313
576 453
576 554
576 361
576 577
576 293
577 5
577 779
577 670
577 296
577 578
578 411
578 540
578 579
578 110
578 613
579 388
579 580
579 724
579 720
579 72
580 183
580 298
580 411
580 581
580 690
581 582
581 598
581 797
581 329
581 738
582 31
582 157
582 537
582 583
582 519
583 266
583 768
583 584
583 577
583 544
584 585
584 472
584 625
584 550
584 409
585 586
585 309
585 302
585 237
585 190
586 381
586 672
586 529
586 307
586 587
587 296
587 193
587 588
587 525
587 259
588 437
588 463
588 73
588 589
588 328
589 298
589 557
589 590
589 635
589 443
590 789
590 237
590 370
590 102
590 591
591 217
591 398
591 431
591 592
591 722
592 593
592 790
592 270
592 303
592 597
593 273
593 15
593 283
593 510
593 594
594 657
594 595
594 521
594 782
594 402
595 411
595 306
595 596
595 348
595 293
596 31
596 486
596 479
596 597
596 767
597 598
597 793
597 150
597 632
597 107
598 198
598 274
598 105
598 316
598 599
599 129
599 600
599 674
599 697
599 49
600 567
600 305
600 563
600 601
600 135
601 717
601 706
601 233
601 644
601 602
602 679
602 329
602 327
602 107
602 603
603 604
603 487
603 280
603 746
603 252
604 403
604 605
604 613
604 699
604 201
605 528
605 606
605 116
605 132
605 387
606 438
606 257
606 357
606 264
606 607
607 608
607 130
607 676
607 493
607 698
608 303
608 289
608 428
608 609
608 293
609 610
609 733
609 649
609 451
609 431
610 141
610 636
610 611
610 525
610 107
611 547
611 154
611 572
611 8
611 612
612 613
612 697
612 362
612 431
612 95
613 441
613 34
613 505
613 614
613 474
614 256
614 615
614 336
614 210
614 238
615 129
615 309
615 616
615 33
615 527
616 597
616 114
616 617
616 536
616 542
617 671
617 693
617 618
617 537
617 521
618 45
618 407
618 574
618 619
618 510
619 714
619 119
619 556
619 620
619 229
620 455
620 397
620 735
620 621
620 98
621 301
621 67
621 336
621 622
621 150
622 22
622 623
622 784
622 147
622 448
623 400
623 624
623 747
623 483
623 90
624 55
624 197
624 127
624 625
624 341
625 565
625 626
625 719
625 578
625 770
626 627
626 773
626 798
626 445
626 769
627 439
627 425
627 58
627 118
627 628
628 258
628 622
628 76
628 629
628 454
629 52
629 637
629 614
629 630
629 224
630 631
630 328
630 530
630 528
630 603
631 713
631 100
631 172
631 354
631 632
632 191
632 459
632 262
632 633
632 368
633 249
633 354
633 306
633 634
633 711
634 69
634 635
634 68
634 583
634 646
635 380
635 636
635 469
635 129
635 114
636 136
636 637
636 528
636 169
636 430
637 129
637 475
637 638
637 717
637 500
638 639
638 179
638 739
638 132
638 169
639 640
639 31
639 85
639 34
639 278
640 308
640 722
640 641
640 594
640 157
641 575
641 472
641 455
641 228
641 642
642 142
642 643
642 346
642 246
642 249
643 547
643 44
643 594
643 644
643 608
644 19
644 360
644 572
644 645
644 523
645 765
645 324
645 471
645 493
645 646
646 528
646 647
646 509
646 292
646 199
647 648
647 701
647 659
647 471
647 562
648 649
648 456
648 301
648 29
648 635
649 54
649 731
649 650
649 595
649 444
650 626
650 411
650 651
650 562
650 400
651 383
651 652
651 382
651 48
651 434
652 653
652 763
652 782
652 169
652 447
653 143
653 654
653 743
653 643
653 594
654 254
654 100
654 682
654 655
654 86
655 777
655 656
655 348
655 337
655 98
656 114
656 500
656 657
656 535
656 457
657 185
657 786
657 13
657 658
657 368
658 118
658 659
658 439
658 127
658 150
659 259
659 660
659 502
659 405
659 351
660 250
660 388
660 491
660 661
660 172
661 52
661 662
661 706
661 392
661 731
662 657
662 432
662 121
662 663
662 714
663 113
663 664
663 105
663 580
663 584
664 348
664 448
664 592
664 665
664 304
665 384
665 191
665 336
665 331
665 666
666 417
666 277
666 528
666 529
666 667
667 621
667 507
667 668
667 61
667 290
668 369
668 669
668 614
668 22
668 99
669 220
669 206
669 703
669 670
669 570
670 683
670 553
670 118
670 671
670 48
671 720
671 672
671 391
671 287
671 148
672 212
672 436
672 673
672 139
672 511
673 119
673 500
673 97
673 674
673 318
674 48
674 675
674 102
674 294
674 23
675 676
675 624
675 475
675 190
675 547
676 442
676 251
676 677
676 484
676 641
677 678
677 739
677 582
677 25
677 470
678 522
678 679
678 337
678 185
678 721
679 680
679 283
679 72
679 152
679 183
680 777
680 628
680 681
680 425
680 723
681 771
681 389
681 788
681 183
681 682
682 368
682 683
682 154
682 367
682 129
683 168
683 57
683 497
683 70
683 684
684 366
684 685
684 667
684 412
684 711
685 557
685 315
685 149
685 747
685 686
686 441
686 791
686 514
686 478
686 687
687 685
687 267
687 689
687 688
687 411
688 689
688 696
688 34
688 195
688 749
689 554
689 690
689 171
689 421
689 652
690 789
690 284
690 691
690 621
690 239
691 65
691 685
691 622
691 692
691 659
692 97
692 693
692 250
692 680
692 42
693 722
693 765
693 694
693 496
693 360
694 614
694 578
694 695
694 185
694 632
695 108
695 696
695 326
695 148
695 746
696 697
696 108
696 508
696 195
696 530
697 232
697 241
697 698
697 71
697 420
698 532
698 157
698 382
698 699
699 489
699 706
699 418
699 700
699 279
700 714
700 647
700 316
700 701
700 496
701 81
701 401
701 702
701 203
701 549
702 703
702 449
702 635
702 409
702 505
703 704
703 657
703 377
703 500
703 79
704 392
704 666
704 182
704 705
704 362
705 250
705 214
705 706
705 27
705 609
706 750
706 88
706 707
706 745
706 12
707 708
707 228
707 728
707 533
707 50
708 85
708 709
708 582
708 134
708 452
709 198
709 710
709 555
709 730
709 386
710 75
710 181
710 784
710 386
710 711
711 193
711 32
711 580
711 345
711 712
712 713
712 97
712 502
712 373
712 417
713 781
713 425
713 400
713 714
713 738
714 715
714 705
714 176
714 656
714 543
715 716
715 678
715 479
715 548
715 2
716 676
716 40
716 717
716 184
716 212
717 460
717 260
717 718
717 769
717 218
718 126
718 536
718 789
718 719
718 200
719 47
719 148
719 9
719 720
719 678
720 721
720 367
720 78
720 428
720 422
721 112
721 43
721 722
721 669
721 751
722 151
722 263
722 178
722 723
722 624
723 758
723 724
723 710
723 279
723 45
724 648
724 727
724 71
724 725
724 673
725 430
725 798
725 726
725 297
725 318
726 69
726 236
726 604
726 459
726 727
727 574
727 582
727 81
727 728
727 221
728 441
728 16
728 594
728 386
728 729
729 730
729 585
729 752
729 693
729 773
730 232
730 731
730 285
730 761
730 655
731 237
731 732
731 474
731 683
731 416
732 733
732 352
732 324
732 8
732 67
733 283
733 57
733 734
733 775
733 203
734 735
734 701
734 294
734 568
734 554
735 663
735 111
735 736
735 16
735 288
736 117
736 437
736 480
736 737
736 719
737 306
737 231
737 487
737 795
737 738
738 282
738 225
738 739
738 184
738 236
739 793
739 422
739 740
739 155
739 684
740 696
740 767
740 741
740 81
740 1
741 355
741 214
741 544
741 742
741 798
742 743
742 318
742 375
742 568
742 28
743 417
743 703
743 744
743 451
743 90
744 554
744 252
744 745
744 682
744 31
745 746
745 141
745 751
745 411
746 752
746 598
746 747
746 295
746 615
747 75
747 433
747 748
747 332
747 616
748 682
748 749
748 609
748 181
748 754
749 750
749 66
749 91
749 603
749 571
750 212
750 14
750 386
750 232
750 751
751 259
751 368
751 522
751 782
751 752
752 785
752 654
752 276
752 714
752 753
753 137
753 73
753 335
753 754
753 162
754 590
754 465
754 225
754 495
754 755
755 414
755 756
755 128
755 12
755 792
756 744
756 484
756 646
756 757
756 377
757 69
757 734
757 758
757 366
757 674
758 272
758 759
758 386
758 745
758 410
759 693
759 338
759 778
759 674
759 760
760 165
760 761
760 182
760 131
760 199
761 740
761 762
761 38
761 343
761 203
762 312
762 763
762 252
762 571
762 746
763 241
763 679
763 17
763 764
763 310
764 87
764 464
764 95
764 350
764 765
765 96
765 121
765 766
765 463
765 629
766 371
766 88
766 767
766 176
766 623
767 267
767 407
767 736
767 500
767 768
768 276
768 769
768 110
768 666
768 754
769 102
769 790
769 78
769 770
769 599
770 626
770 529
770 255
770 771
770 158
771 81
771 27
771 772
771 220
771 770
772 700
772 374
772 346
772 230
772 773
773 774
773 129
773 476
773 28
773 564
774 443
774 69
774 775
774 638
774 21
775 162
775 632
775 203
775 776
775 288
776 405
776 130
776 777
776 786
776 794
777 138
777 195
777 508
777 188
777 778
778 779
778 294
778 145
778 201
778 419
779 780
779 523
779 715
779 229
779 752
780 781
780 243
780 739
780 579
780 799
781 782
781 706
781 502
781 271
781 544
782 99
782 428
782 146
782 578
782 783
783 706
783 475
783 784
783 277
783 64
784 27
784 377
784 276
784 785
784 243
785 275
785 303
785 786
785 291
785 443
786 787
786 17
786 94
786 307
786 227
787 519
787 311
787 376
787 354
787 788
788 377
788 789
788 594
788 97
788 161
789 610
789 23
789 603
789 770
789 790
790 357
790 791
790 724
790 664
790 606
791 301
791 73
791 597
791 792
791 569
792 126
792 256
792 304
792 793
792 443
793 479
793 212
793 665
793 449
793 794
794 257
794 5
794 795
794 621
794 157
795 464
795 744
795 375
795 796
796 395
796 127
796 797
796 103
796 681
797 798
797 245
797 555
797 579
797 532
798 567
798 232
798 239
798 713
798 799
799 3
799 800
799 110
799 426
799 412
800 1
800 606
800 129
800 791
800 36
